\ Equation counts
\     Total        E        G        L        N        X        C        B
\        42        0        0       42        0        0        0        0
\ 
\ Variable counts
\                  x        b        i      s1s      s2s       sc       si
\     Total     cont   binary  integer     sos1     sos2    scont     sint
\        63        0        7       56        0        0        0        0
\ 
\ Nonzero counts
\     Total    const       NL      DLL
\       287      189       98        0
\ 
Minimize
 obj: 0.1 b2 + 0.2 b3 + 0.3 b4 + 0.4 b5 + 0.5 b6 + 0.6 b7 + 0.7 b8 + i9 + i10 + i11 + i12 + i13 + i14 
  + i15 + 0 i16 + 0 i17 + 0 i18 + 0 i19 + 0 i20 + 0 i21 + 0 i22 + 0 i23 + 0 i24 + 0 i25 + 0 i26 + 0 i27 
  + 0 i28 + 0 i29 + 0 i30 + 0 i31 + 0 i32 + 0 i33 + 0 i34 + 0 i35 + 0 i36 + 0 i37 + 0 i38 + 0 i39 + 0 i40 
  + 0 i41 + 0 i42 + 0 i43 + 0 i44 + 0 i45 + 0 i46 + 0 i47 + 0 i48 + 0 i49 + 0 i50 + 0 i51 + 0 i52 + 0 i53 
  + 0 i54 + 0 i55 + 0 i56 + 0 i57 + 0 i58 + 0 i59 + 0 i60 + 0 i61 + 0 i62 + 0 i63 + 0 i64

Subject To
 e2: 550 i16 + 630 i17 + 685 i18 + 720 i19 + 760 i20 + 810 i21 + 850 i22 <= 3400
 e3: 550 i23 + 630 i24 + 685 i25 + 720 i26 + 760 i27 + 810 i28 + 850 i29 <= 3400
 e4: 550 i30 + 630 i31 + 685 i32 + 720 i33 + 760 i34 + 810 i35 + 850 i36 <= 3400
 e5: 550 i37 + 630 i38 + 685 i39 + 720 i40 + 760 i41 + 810 i42 + 850 i43 <= 3400
 e6: 550 i44 + 630 i45 + 685 i46 + 720 i47 + 760 i48 + 810 i49 + 850 i50 <= 3400
 e7: 550 i51 + 630 i52 + 685 i53 + 720 i54 + 760 i55 + 810 i56 + 850 i57 <= 3400
 e8: 550 i58 + 630 i59 + 685 i60 + 720 i61 + 760 i62 + 810 i63 + 850 i64 <= 3400
 e9: - 550 i16 - 630 i17 - 685 i18 - 720 i19 - 760 i20 - 810 i21 - 850 i22 <= -3200
 e10: - 550 i23 - 630 i24 - 685 i25 - 720 i26 - 760 i27 - 810 i28 - 850 i29 <= -3200
 e11: - 550 i30 - 630 i31 - 685 i32 - 720 i33 - 760 i34 - 810 i35 - 850 i36 <= -3200
 e12: - 550 i37 - 630 i38 - 685 i39 - 720 i40 - 760 i41 - 810 i42 - 850 i43 <= -3200
 e13: - 550 i44 - 630 i45 - 685 i46 - 720 i47 - 760 i48 - 810 i49 - 850 i50 <= -3200
 e14: - 550 i51 - 630 i52 - 685 i53 - 720 i54 - 760 i55 - 810 i56 - 850 i57 <= -3200
 e15: - 550 i58 - 630 i59 - 685 i60 - 720 i61 - 760 i62 - 810 i63 - 850 i64 <= -3200
 e16: i16 + i17 + i18 + i19 + i20 + i21 + i22 <= 6
 e17: i23 + i24 + i25 + i26 + i27 + i28 + i29 <= 6
 e18: i30 + i31 + i32 + i33 + i34 + i35 + i36 <= 6
 e19: i37 + i38 + i39 + i40 + i41 + i42 + i43 <= 6
 e20: i44 + i45 + i46 + i47 + i48 + i49 + i50 <= 6
 e21: i51 + i52 + i53 + i54 + i55 + i56 + i57 <= 6
 e22: i58 + i59 + i60 + i61 + i62 + i63 + i64 <= 6
 e23: b2 - i9 <= 0
 e24: b3 - i10 <= 0
 e25: b4 - i11 <= 0
 e26: b5 - i12 <= 0
 e27: b6 - i13 <= 0
 e28: b7 - i14 <= 0
 e29: b8 - i15 <= 0
 e30: - 15 b2 + i9 <= 0
 e31: - 15 b3 + i10 <= 0
 e32: - 15 b4 + i11 <= 0
 e33: - 15 b5 + i12 <= 0
 e34: - 15 b6 + i13 <= 0
 e35: - 15 b7 + i14 <= 0
 e36: - 15 b8 + i15 <= 0
 e37: [ - i9 * i16 - i10 * i23 - i11 * i30 - i12 * i37 - i13 * i44 - i14 * i51 - i15 * i58 ] <= -8
 e38: [ - i9 * i17 - i10 * i24 - i11 * i31 - i12 * i38 - i13 * i45 - i14 * i52 - i15 * i59 ] <= -11
 e39: [ - i9 * i18 - i10 * i25 - i11 * i32 - i12 * i39 - i13 * i46 - i14 * i53 - i15 * i60 ] <= -15
 e40: [ - i9 * i19 - i10 * i26 - i11 * i33 - i12 * i40 - i13 * i47 - i14 * i54 - i15 * i61 ] <= -5
 e41: [ - i9 * i20 - i10 * i27 - i11 * i34 - i12 * i41 - i13 * i48 - i14 * i55 - i15 * i62 ] <= -8
 e42: [ - i9 * i21 - i10 * i28 - i11 * i35 - i12 * i42 - i13 * i49 - i14 * i56 - i15 * i63 ] <= -12
 e43: [ - i9 * i22 - i10 * i29 - i11 * i36 - i12 * i43 - i13 * i50 - i14 * i57 - i15 * i64 ] <= -6

Bounds
 i9 <= 15
 i10 <= 15
 i11 <= 15
 i12 <= 15
 i13 <= 15
 i14 <= 15
 i15 <= 15
 i16 <= 6
 i17 <= 6
 i18 <= 6
 i19 <= 6
 i20 <= 6
 i21 <= 6
 i22 <= 6
 i23 <= 6
 i24 <= 6
 i25 <= 6
 i26 <= 6
 i27 <= 6
 i28 <= 6
 i29 <= 6
 i30 <= 6
 i31 <= 6
 i32 <= 6
 i33 <= 6
 i34 <= 6
 i35 <= 6
 i36 <= 6
 i37 <= 6
 i38 <= 6
 i39 <= 6
 i40 <= 6
 i41 <= 6
 i42 <= 6
 i43 <= 6
 i44 <= 6
 i45 <= 6
 i46 <= 6
 i47 <= 6
 i48 <= 6
 i49 <= 6
 i50 <= 6
 i51 <= 6
 i52 <= 6
 i53 <= 6
 i54 <= 6
 i55 <= 6
 i56 <= 6
 i57 <= 6
 i58 <= 6
 i59 <= 6
 i60 <= 6
 i61 <= 6
 i62 <= 6
 i63 <= 6
 i64 <= 6

Binary
 b2 b3 b4 b5 b6 b7 b8

General
 i9 i10 i11 i12 i13 i14 i15 i16 i17 i18 i19 i20 i21 i22 i23 i24 i25 i26 i27 i28 i29 i30 i31
 i32 i33 i34 i35 i36 i37 i38 i39 i40 i41 i42 i43 i44 i45 i46 i47 i48 i49 i50 i51 i52 i53 i54
 i55 i56 i57 i58 i59 i60 i61 i62 i63 i64

End
